InboundTrucks  = 10;
OutboundTrucks = 10;
InboundDoors   = 8;
OutboundDoors  = 8;
ReleaseTime    = [30,75,69,16,47,117,77,60,80,74];
UnloadTime     = [25,27,21,17,33,24,24,27,24,22];
LoadTime       = [5,15,7,20,19,7,14,15,6,12];
TransferTime   = [| 5,0,0,1,0,0,2,0,0,4 | 0,0,10,0,3,0,0,0,0,0 | 0,0,5,0,0,4,0,0,1,6 | 4,0,0,1,0,0,2,0,7,5 | 0,3,0,0,2,0,0,0,0,0 | 0,0,5,0,0,2,7,0,2,0 | 3,0,0,2,0,7,2,0,0,5 | 10,5,0,0,4,8,0,1,0,0 | 0,0,4,0,0,0,0,0,4,0 | 0,0,0,5,0,0,2,0,9,5 |];
